3 
8 
8 
3 
6 
4 
6 
5 
1 
6 
5 
2 
5 
2 
5 
10 
5 
1 
5 
4 
4 
3 
4 
4 
6 
5 
5 
3 
6 
4 
4 
10 
4 
7 
6 
1 
2 
5 
7 
9 
2 
8 
5 
7 
4 
6 
5 
2 
4 
4 
6 
7 
5 
4 
5 
5 
3 
3 
3 
5 
2 
2 
9 
2 
2 
5 
4 
2 
1 
6 
4 
4 
4 
8 
6 
7 
1 
12 
5 
6 
5 
6 
4 
6 
7 
3 
7 
7 
3 
3 
7 
6 
5 
6 
7 
3 
8 
5 
8 
4 
